p cnf 841 2508
1 0
2 0
3 0
4 0
5 0
6 0
7 0
8 0
9 0
10 0
11 0
12 0
13 0
14 0
15 0
16 0
17 0
18 0
19 0
20 0
21 0
22 0
23 0
24 0
25 0
-26 0
-27 28 0
-29 28 0
-30 28 0
-31 28 0
-32 28 0
28 -33 0
28 -34 0
-35 28 0
-36 28 0
28 -37 0
28 -38 0
28 -39 0
-40 28 0
-41 28 0
42 0
1 -28 0
-1 28 0
-29 43 0
-30 43 0
-31 43 0
-32 43 0
-33 43 0
-34 43 0
-35 43 0
-36 43 0
-37 43 0
-38 43 0
-39 43 0
-40 43 0
-41 43 0
44 0
45 -43 0
-45 43 0
-30 46 0
-31 46 0
-32 46 0
-33 46 0
-34 46 0
-35 46 0
-36 46 0
-37 46 0
-38 46 0
-39 46 0
-40 46 0
-41 46 0
47 0
48 -46 0
-48 46 0
-31 49 0
-32 49 0
-33 49 0
-34 49 0
-35 49 0
-36 49 0
-37 49 0
-38 49 0
-39 49 0
-40 49 0
-41 49 0
50 0
51 -49 0
-51 49 0
-32 52 0
-33 52 0
-34 52 0
-35 52 0
-36 52 0
-37 52 0
-38 52 0
-39 52 0
-40 52 0
-41 52 0
53 0
54 -52 0
-54 52 0
-33 55 0
-34 55 0
-35 55 0
-36 55 0
-37 55 0
-38 55 0
-39 55 0
-40 55 0
-41 55 0
56 0
57 -55 0
-57 55 0
-34 58 0
-35 58 0
-36 58 0
-37 58 0
-38 58 0
-39 58 0
-40 58 0
-41 58 0
59 0
60 -58 0
-60 58 0
61 -58 0
-61 58 0
62 -58 0
-62 58 0
63 -58 0
-63 58 0
-38 64 0
-39 64 0
-40 64 0
-41 64 0
-34 64 0
-35 64 0
-36 64 0
-37 64 0
65 0
66 -64 0
-66 64 0
67 -58 0
-67 58 0
68 -58 0
-68 58 0
69 -58 0
-69 58 0
70 -71 0
-72 70 0
-73 70 0
70 -74 0
-75 70 0
70 -76 0
70 -77 0
70 -78 0
70 -79 0
-80 70 0
81 0
2 -70 0
-2 70 0
-72 82 0
-73 82 0
-74 82 0
-75 82 0
-76 82 0
-77 82 0
-78 82 0
-79 82 0
-80 82 0
83 0
84 -82 0
-84 82 0
-73 85 0
-74 85 0
-75 85 0
-76 85 0
-77 85 0
-78 85 0
-79 85 0
-80 85 0
86 0
87 -85 0
-87 85 0
-74 88 0
-75 88 0
-76 88 0
-77 88 0
-78 88 0
-79 88 0
-80 88 0
89 0
90 -88 0
-90 88 0
-75 91 0
-76 91 0
-77 91 0
-78 91 0
-79 91 0
-80 91 0
92 0
93 -91 0
-93 91 0
94 -91 0
-94 91 0
95 -91 0
-95 91 0
96 -91 0
-96 91 0
97 -91 0
-97 91 0
98 -91 0
-98 91 0
-99 100 0
-101 100 0
-102 100 0
-103 100 0
-104 100 0
100 -105 0
-106 100 0
-107 100 0
-108 100 0
-109 100 0
100 -110 0
100 -111 0
112 0
3 -100 0
-3 100 0
-101 113 0
-102 113 0
-103 113 0
-104 113 0
-105 113 0
-106 113 0
-107 113 0
-108 113 0
-109 113 0
-110 113 0
-111 113 0
114 0
115 -113 0
-115 113 0
-102 116 0
-103 116 0
-104 116 0
-105 116 0
-106 116 0
-107 116 0
-108 116 0
-109 116 0
-110 116 0
-111 116 0
117 0
118 -116 0
-118 116 0
-103 119 0
-104 119 0
-105 119 0
-106 119 0
-107 119 0
-108 119 0
-109 119 0
-110 119 0
-111 119 0
120 0
121 -119 0
-121 119 0
-104 122 0
-105 122 0
-106 122 0
-107 122 0
-108 122 0
-109 122 0
-110 122 0
-111 122 0
123 0
124 -122 0
-124 122 0
125 -122 0
-125 122 0
126 -122 0
-126 122 0
127 -122 0
-127 122 0
128 -122 0
-128 122 0
129 -122 0
-129 122 0
130 -122 0
-130 122 0
131 -122 0
-131 122 0
-132 133 0
-134 133 0
133 -135 0
-136 133 0
-137 133 0
133 -138 0
-139 133 0
133 -140 0
-141 133 0
-142 133 0
133 -143 0
133 -144 0
133 -145 0
133 -146 0
147 0
4 -133 0
-4 133 0
-134 148 0
-135 148 0
-136 148 0
-137 148 0
-138 148 0
-139 148 0
-140 148 0
-141 148 0
-142 148 0
-143 148 0
-144 148 0
-145 148 0
-146 148 0
149 0
150 -148 0
-150 148 0
-135 151 0
-136 151 0
-137 151 0
-138 151 0
-139 151 0
-140 151 0
-141 151 0
-142 151 0
-143 151 0
-144 151 0
-145 151 0
-146 151 0
152 0
153 -151 0
-153 151 0
-136 154 0
-137 154 0
-138 154 0
-139 154 0
-140 154 0
-141 154 0
-142 154 0
-143 154 0
-144 154 0
-145 154 0
-146 154 0
155 0
156 -154 0
-156 154 0
-137 157 0
-138 157 0
-139 157 0
-140 157 0
-141 157 0
-142 157 0
-143 157 0
-144 157 0
-145 157 0
-146 157 0
158 0
159 -157 0
-159 157 0
-138 160 0
-139 160 0
-140 160 0
-141 160 0
-142 160 0
-143 160 0
-144 160 0
-145 160 0
-146 160 0
161 0
162 -160 0
-162 160 0
-139 163 0
-140 163 0
-141 163 0
-142 163 0
-143 163 0
-144 163 0
-145 163 0
-146 163 0
164 0
165 -163 0
-165 163 0
-140 166 0
-141 166 0
-142 166 0
-143 166 0
-144 166 0
-145 166 0
-146 166 0
167 0
168 -166 0
-168 166 0
169 -166 0
-169 166 0
170 -166 0
-170 166 0
171 -166 0
-171 166 0
172 -166 0
-172 166 0
173 -166 0
-173 166 0
174 -166 0
-174 166 0
-175 176 0
-177 176 0
-178 176 0
176 -179 0
-180 176 0
176 -181 0
176 -182 0
-183 176 0
176 -184 0
-185 176 0
-186 176 0
187 0
5 -176 0
-5 176 0
-177 188 0
-178 188 0
-179 188 0
-180 188 0
-181 188 0
-182 188 0
-183 188 0
-184 188 0
-185 188 0
-186 188 0
189 0
190 -188 0
-190 188 0
-178 191 0
-179 191 0
-180 191 0
-181 191 0
-182 191 0
-183 191 0
-184 191 0
-185 191 0
-186 191 0
192 0
193 -191 0
-193 191 0
-179 194 0
-180 194 0
-181 194 0
-182 194 0
-183 194 0
-184 194 0
-185 194 0
-186 194 0
195 0
196 -194 0
-196 194 0
-180 197 0
-181 197 0
-182 197 0
-183 197 0
-184 197 0
-185 197 0
-186 197 0
198 0
199 -197 0
-199 197 0
200 -197 0
-200 197 0
201 -197 0
-201 197 0
202 -197 0
-202 197 0
203 -197 0
-203 197 0
204 -197 0
-204 197 0
205 -197 0
-205 197 0
-206 207 0
-208 207 0
-209 207 0
-210 207 0
-211 207 0
207 -212 0
-213 207 0
-214 207 0
-215 207 0
207 -216 0
207 -217 0
218 0
6 -207 0
-6 207 0
-208 219 0
-209 219 0
-210 219 0
-211 219 0
-212 219 0
-213 219 0
-214 219 0
-215 219 0
-216 219 0
-217 219 0
220 0
221 -219 0
-221 219 0
-209 222 0
-210 222 0
-211 222 0
-212 222 0
-213 222 0
-214 222 0
-215 222 0
-216 222 0
-217 222 0
223 0
224 -222 0
-224 222 0
-210 225 0
-211 225 0
-212 225 0
-213 225 0
-214 225 0
-215 225 0
-216 225 0
-217 225 0
226 0
227 -225 0
-227 225 0
-211 228 0
-212 228 0
-213 228 0
-214 228 0
-215 228 0
-216 228 0
-217 228 0
229 0
230 -228 0
-230 228 0
-212 231 0
-213 231 0
-214 231 0
-215 231 0
-216 231 0
-217 231 0
232 0
233 -231 0
-233 231 0
234 -231 0
-234 231 0
235 -231 0
-235 231 0
236 -231 0
-236 231 0
237 -231 0
-237 231 0
238 -231 0
-238 231 0
239 -240 0
-241 239 0
-242 239 0
239 -243 0
-244 239 0
-245 239 0
239 -246 0
239 -247 0
-248 239 0
239 -249 0
-250 239 0
-251 239 0
239 -252 0
239 -253 0
-254 239 0
255 0
7 -239 0
-7 239 0
-241 256 0
-242 256 0
-243 256 0
-244 256 0
-245 256 0
-246 256 0
-247 256 0
-248 256 0
-249 256 0
-250 256 0
-251 256 0
-252 256 0
-253 256 0
-254 256 0
257 0
258 -256 0
-258 256 0
-242 259 0
-243 259 0
-244 259 0
-245 259 0
-246 259 0
-247 259 0
-248 259 0
-249 259 0
-250 259 0
-251 259 0
-252 259 0
-253 259 0
-254 259 0
260 0
261 -259 0
-261 259 0
-243 262 0
-244 262 0
-245 262 0
-246 262 0
-247 262 0
-248 262 0
-249 262 0
-250 262 0
-251 262 0
-252 262 0
-253 262 0
-254 262 0
263 0
264 -262 0
-264 262 0
-244 265 0
-245 265 0
-246 265 0
-247 265 0
-248 265 0
-249 265 0
-250 265 0
-251 265 0
-252 265 0
-253 265 0
-254 265 0
266 0
267 -265 0
-267 265 0
-245 268 0
-246 268 0
-247 268 0
-248 268 0
-249 268 0
-250 268 0
-251 268 0
-252 268 0
-253 268 0
-254 268 0
269 0
270 -268 0
-270 268 0
-246 271 0
-247 271 0
-248 271 0
-249 271 0
-250 271 0
-251 271 0
-252 271 0
-253 271 0
-254 271 0
272 0
273 -271 0
-273 271 0
-247 274 0
-248 274 0
-249 274 0
-250 274 0
-251 274 0
-252 274 0
-253 274 0
-254 274 0
275 0
276 -274 0
-276 274 0
-248 277 0
-249 277 0
-250 277 0
-251 277 0
-252 277 0
-253 277 0
-254 277 0
278 0
279 -277 0
-279 277 0
280 -277 0
-280 277 0
281 -277 0
-281 277 0
282 -277 0
-282 277 0
283 -277 0
-283 277 0
284 -277 0
-284 277 0
285 -277 0
-285 277 0
-140 286 0
-141 286 0
-142 286 0
-143 286 0
-144 286 0
-145 286 0
-146 286 0
-287 286 0
286 -288 0
286 -289 0
-290 286 0
291 0
8 -286 0
-8 286 0
-140 292 0
-141 292 0
-142 292 0
-143 292 0
-144 292 0
-145 292 0
-146 292 0
-288 292 0
-289 292 0
-290 292 0
293 0
294 -292 0
-294 292 0
-140 295 0
-141 295 0
-142 295 0
-143 295 0
-144 295 0
-145 295 0
-146 295 0
-289 295 0
-290 295 0
296 0
297 -295 0
-297 295 0
-140 298 0
-141 298 0
-142 298 0
-143 298 0
-144 298 0
-145 298 0
-146 298 0
-290 298 0
299 0
300 -298 0
-300 298 0
-301 302 0
-303 302 0
-304 302 0
-305 302 0
-306 302 0
302 -307 0
-308 302 0
302 -309 0
-310 302 0
302 -311 0
-312 302 0
-313 302 0
302 -314 0
302 -315 0
316 0
9 -302 0
-9 302 0
-303 317 0
-304 317 0
-305 317 0
-306 317 0
-307 317 0
-308 317 0
-309 317 0
-310 317 0
-311 317 0
-312 317 0
-313 317 0
-314 317 0
-315 317 0
318 0
319 -317 0
-319 317 0
-304 320 0
-305 320 0
-306 320 0
-307 320 0
-308 320 0
-309 320 0
-310 320 0
-311 320 0
-312 320 0
-313 320 0
-314 320 0
-315 320 0
321 0
322 -320 0
-322 320 0
-305 323 0
-306 323 0
-307 323 0
-308 323 0
-309 323 0
-310 323 0
-311 323 0
-312 323 0
-313 323 0
-314 323 0
-315 323 0
324 0
325 -323 0
-325 323 0
-306 326 0
-307 326 0
-308 326 0
-309 326 0
-310 326 0
-311 326 0
-312 326 0
-313 326 0
-314 326 0
-315 326 0
327 0
328 -326 0
-328 326 0
-307 329 0
-308 329 0
-309 329 0
-310 329 0
-311 329 0
-312 329 0
-313 329 0
-314 329 0
-315 329 0
330 0
331 -329 0
-331 329 0
-308 332 0
-309 332 0
-310 332 0
-311 332 0
-312 332 0
-313 332 0
-314 332 0
-315 332 0
333 0
334 -332 0
-334 332 0
-309 335 0
-310 335 0
-311 335 0
-312 335 0
-313 335 0
-314 335 0
-315 335 0
336 0
337 -335 0
-337 335 0
338 -335 0
-338 335 0
-311 339 0
-312 339 0
-313 339 0
-314 339 0
-315 339 0
-309 339 0
-310 339 0
340 0
341 -339 0
-341 339 0
342 -335 0
-342 335 0
343 -335 0
-343 335 0
344 -335 0
-344 335 0
345 -335 0
-345 335 0
346 -347 0
-348 346 0
346 -349 0
-350 346 0
346 -351 0
-352 346 0
346 -353 0
-354 346 0
346 -355 0
346 -356 0
346 -357 0
-358 346 0
359 0
10 -346 0
-10 346 0
-348 360 0
-349 360 0
-350 360 0
-351 360 0
-352 360 0
-353 360 0
-354 360 0
-355 360 0
-356 360 0
-357 360 0
-358 360 0
361 0
362 -360 0
-362 360 0
-349 363 0
-350 363 0
-351 363 0
-352 363 0
-353 363 0
-354 363 0
-355 363 0
-356 363 0
-357 363 0
-358 363 0
364 0
365 -363 0
-365 363 0
-350 366 0
-351 366 0
-352 366 0
-353 366 0
-354 366 0
-355 366 0
-356 366 0
-357 366 0
-358 366 0
367 0
368 -366 0
-368 366 0
-351 369 0
-352 369 0
-353 369 0
-354 369 0
-355 369 0
-356 369 0
-357 369 0
-358 369 0
370 0
371 -369 0
-371 369 0
-352 372 0
-353 372 0
-354 372 0
-355 372 0
-356 372 0
-357 372 0
-358 372 0
373 0
374 -372 0
-374 372 0
375 -372 0
-375 372 0
376 -372 0
-376 372 0
377 -372 0
-377 372 0
378 -372 0
-378 372 0
379 -372 0
-379 372 0
380 -372 0
-380 372 0
381 -382 0
-383 381 0
-384 381 0
-385 381 0
381 -386 0
-73 381 0
-74 381 0
-75 381 0
-76 381 0
-77 381 0
-78 381 0
-79 381 0
-80 381 0
387 0
11 -381 0
-11 381 0
-383 388 0
-384 388 0
-385 388 0
-386 388 0
-73 388 0
-74 388 0
-75 388 0
-76 388 0
-77 388 0
-78 388 0
-79 388 0
-80 388 0
389 0
390 -388 0
-390 388 0
-384 391 0
-385 391 0
-386 391 0
-73 391 0
-74 391 0
-75 391 0
-76 391 0
-77 391 0
-78 391 0
-79 391 0
-80 391 0
392 0
393 -391 0
-393 391 0
-385 394 0
-386 394 0
-73 394 0
-74 394 0
-75 394 0
-76 394 0
-77 394 0
-78 394 0
-79 394 0
-80 394 0
395 0
396 -394 0
-396 394 0
-386 397 0
-73 397 0
-74 397 0
-75 397 0
-76 397 0
-77 397 0
-78 397 0
-79 397 0
-80 397 0
398 0
399 -397 0
-399 397 0
400 -401 0
400 -402 0
400 -403 0
-404 400 0
-405 400 0
-406 400 0
400 -407 0
400 -408 0
-409 400 0
-410 400 0
-411 400 0
400 -412 0
400 -413 0
414 0
12 -400 0
-12 400 0
-402 415 0
-403 415 0
-404 415 0
-405 415 0
-406 415 0
-407 415 0
-408 415 0
-409 415 0
-410 415 0
-411 415 0
-412 415 0
-413 415 0
416 0
417 -415 0
-417 415 0
-403 418 0
-404 418 0
-405 418 0
-406 418 0
-407 418 0
-408 418 0
-409 418 0
-410 418 0
-411 418 0
-412 418 0
-413 418 0
419 0
420 -418 0
-420 418 0
-404 421 0
-405 421 0
-406 421 0
-407 421 0
-408 421 0
-409 421 0
-410 421 0
-411 421 0
-412 421 0
-413 421 0
422 0
423 -421 0
-423 421 0
-405 424 0
-406 424 0
-407 424 0
-408 424 0
-409 424 0
-410 424 0
-411 424 0
-412 424 0
-413 424 0
425 0
426 -424 0
-426 424 0
-406 427 0
-407 427 0
-408 427 0
-409 427 0
-410 427 0
-411 427 0
-412 427 0
-413 427 0
428 0
429 -427 0
-429 427 0
-407 430 0
-408 430 0
-409 430 0
-410 430 0
-411 430 0
-412 430 0
-413 430 0
431 0
432 -430 0
-432 430 0
433 -430 0
-433 430 0
434 -430 0
-434 430 0
435 -430 0
-435 430 0
436 -430 0
-436 430 0
437 -430 0
-437 430 0
438 -430 0
-438 430 0
-140 439 0
-141 439 0
-142 439 0
-143 439 0
-144 439 0
-145 439 0
-146 439 0
439 -440 0
-441 439 0
-442 439 0
-443 439 0
444 0
13 -439 0
-13 439 0
-140 445 0
-141 445 0
-142 445 0
-143 445 0
-144 445 0
-145 445 0
-146 445 0
-441 445 0
-442 445 0
-443 445 0
446 0
447 -445 0
-447 445 0
-140 448 0
-141 448 0
-142 448 0
-143 448 0
-144 448 0
-145 448 0
-146 448 0
-442 448 0
-443 448 0
449 0
450 -448 0
-450 448 0
-140 451 0
-141 451 0
-142 451 0
-143 451 0
-144 451 0
-145 451 0
-146 451 0
-443 451 0
452 0
453 -451 0
-453 451 0
454 -455 0
454 -456 0
454 -457 0
454 -458 0
454 -459 0
-460 454 0
-461 454 0
-462 454 0
-463 454 0
454 -464 0
-465 454 0
-466 454 0
-467 454 0
454 -468 0
469 0
14 -454 0
-14 454 0
-456 470 0
-457 470 0
-458 470 0
-459 470 0
-460 470 0
-461 470 0
-462 470 0
-463 470 0
-464 470 0
-465 470 0
-466 470 0
-467 470 0
-468 470 0
471 0
472 -470 0
-472 470 0
-457 473 0
-458 473 0
-459 473 0
-460 473 0
-461 473 0
-462 473 0
-463 473 0
-464 473 0
-465 473 0
-466 473 0
-467 473 0
-468 473 0
474 0
475 -473 0
-475 473 0
-458 476 0
-459 476 0
-460 476 0
-461 476 0
-462 476 0
-463 476 0
-464 476 0
-465 476 0
-466 476 0
-467 476 0
-468 476 0
477 0
478 -476 0
-478 476 0
-459 479 0
-460 479 0
-461 479 0
-462 479 0
-463 479 0
-464 479 0
-465 479 0
-466 479 0
-467 479 0
-468 479 0
480 0
481 -479 0
-481 479 0
-460 482 0
-461 482 0
-462 482 0
-463 482 0
-464 482 0
-465 482 0
-466 482 0
-467 482 0
-468 482 0
483 0
484 -482 0
-484 482 0
-461 485 0
-462 485 0
-463 485 0
-464 485 0
-465 485 0
-466 485 0
-467 485 0
-468 485 0
486 0
487 -485 0
-487 485 0
-462 488 0
-463 488 0
-464 488 0
-465 488 0
-466 488 0
-467 488 0
-468 488 0
489 0
490 -488 0
-490 488 0
-463 491 0
-464 491 0
-465 491 0
-466 491 0
-467 491 0
-468 491 0
492 0
493 -491 0
-493 491 0
494 -491 0
-494 491 0
495 -491 0
-495 491 0
496 -491 0
-496 491 0
497 -491 0
-497 491 0
498 -491 0
-498 491 0
-248 499 0
-249 499 0
-250 499 0
-251 499 0
-252 499 0
-253 499 0
-254 499 0
-500 499 0
-501 499 0
499 -502 0
499 -503 0
499 -504 0
505 0
15 -499 0
-15 499 0
-248 506 0
-249 506 0
-250 506 0
-251 506 0
-252 506 0
-253 506 0
-254 506 0
-501 506 0
-502 506 0
-503 506 0
-504 506 0
507 0
508 -506 0
-508 506 0
-248 509 0
-249 509 0
-250 509 0
-251 509 0
-252 509 0
-253 509 0
-254 509 0
-502 509 0
-503 509 0
-504 509 0
510 0
511 -509 0
-511 509 0
-248 512 0
-249 512 0
-250 512 0
-251 512 0
-252 512 0
-253 512 0
-254 512 0
-503 512 0
-504 512 0
513 0
514 -512 0
-514 512 0
-248 515 0
-249 515 0
-250 515 0
-251 515 0
-252 515 0
-253 515 0
-254 515 0
-504 515 0
516 0
517 -515 0
-517 515 0
-518 519 0
-520 519 0
519 -521 0
519 -522 0
519 -523 0
-524 519 0
-525 519 0
519 -526 0
-527 519 0
519 -528 0
-529 519 0
-530 519 0
531 0
16 -519 0
-16 519 0
-520 532 0
-521 532 0
-522 532 0
-523 532 0
-524 532 0
-525 532 0
-526 532 0
-527 532 0
-528 532 0
-529 532 0
-530 532 0
533 0
534 -532 0
-534 532 0
-521 535 0
-522 535 0
-523 535 0
-524 535 0
-525 535 0
-526 535 0
-527 535 0
-528 535 0
-529 535 0
-530 535 0
536 0
537 -535 0
-537 535 0
-522 538 0
-523 538 0
-524 538 0
-525 538 0
-526 538 0
-527 538 0
-528 538 0
-529 538 0
-530 538 0
539 0
540 -538 0
-540 538 0
-523 541 0
-524 541 0
-525 541 0
-526 541 0
-527 541 0
-528 541 0
-529 541 0
-530 541 0
542 0
543 -541 0
-543 541 0
-524 544 0
-525 544 0
-526 544 0
-527 544 0
-528 544 0
-529 544 0
-530 544 0
545 0
546 -544 0
-546 544 0
547 -544 0
-547 544 0
548 -544 0
-548 544 0
549 -544 0
-549 544 0
550 -544 0
-550 544 0
551 -544 0
-551 544 0
552 -544 0
-552 544 0
553 -554 0
553 -555 0
-556 553 0
-557 553 0
553 -558 0
-559 553 0
553 -560 0
561 0
17 -553 0
-17 553 0
-555 562 0
-556 562 0
-557 562 0
-558 562 0
-559 562 0
-560 562 0
563 0
564 -562 0
-564 562 0
-556 565 0
-557 565 0
-558 565 0
-559 565 0
-560 565 0
556 557 558 559 560 -565 0
566 -565 0
-566 565 0
-557 567 0
-558 567 0
-559 567 0
-560 567 0
557 558 559 560 -567 0
568 -567 0
-568 567 0
-558 569 0
-559 569 0
-560 569 0
558 559 560 -569 0
570 -569 0
-570 569 0
-559 571 0
-560 571 0
559 560 -571 0
572 -571 0
-572 571 0
573 -560 0
-573 560 0
574 -575 0
574 -576 0
-577 574 0
574 -578 0
-579 574 0
-580 574 0
574 -581 0
-582 574 0
574 -583 0
574 -584 0
-585 574 0
-586 574 0
-587 574 0
588 0
18 -574 0
-18 574 0
-576 589 0
-577 589 0
-578 589 0
-579 589 0
-580 589 0
-581 589 0
-582 589 0
-583 589 0
-584 589 0
-585 589 0
-586 589 0
-587 589 0
590 0
591 -589 0
-591 589 0
-577 592 0
-578 592 0
-579 592 0
-580 592 0
-581 592 0
-582 592 0
-583 592 0
-584 592 0
-585 592 0
-586 592 0
-587 592 0
593 0
594 -592 0
-594 592 0
-578 595 0
-579 595 0
-580 595 0
-581 595 0
-582 595 0
-583 595 0
-584 595 0
-585 595 0
-586 595 0
-587 595 0
596 0
597 -595 0
-597 595 0
-579 598 0
-580 598 0
-581 598 0
-582 598 0
-583 598 0
-584 598 0
-585 598 0
-586 598 0
-587 598 0
599 0
600 -598 0
-600 598 0
-580 601 0
-581 601 0
-582 601 0
-583 601 0
-584 601 0
-585 601 0
-586 601 0
-587 601 0
602 0
603 -601 0
-603 601 0
-581 604 0
-582 604 0
-583 604 0
-584 604 0
-585 604 0
-586 604 0
-587 604 0
605 0
606 -604 0
-606 604 0
-582 607 0
-583 607 0
-584 607 0
-585 607 0
-586 607 0
-587 607 0
608 0
609 -607 0
-609 607 0
610 -607 0
-610 607 0
611 -607 0
-611 607 0
612 -607 0
-612 607 0
613 -607 0
-613 607 0
614 -607 0
-614 607 0
-615 616 0
616 -617 0
616 -618 0
616 -619 0
-620 616 0
-621 616 0
616 -622 0
-623 616 0
-624 616 0
616 -625 0
-626 616 0
-627 616 0
616 -628 0
616 -629 0
-630 616 0
616 -631 0
632 0
19 -616 0
-19 616 0
-617 633 0
-618 633 0
-619 633 0
-620 633 0
-621 633 0
-622 633 0
-623 633 0
-624 633 0
-625 633 0
-626 633 0
-627 633 0
-628 633 0
-629 633 0
-630 633 0
-631 633 0
634 0
635 -633 0
-635 633 0
-618 636 0
-619 636 0
-620 636 0
-621 636 0
-622 636 0
-623 636 0
-624 636 0
-625 636 0
-626 636 0
-627 636 0
-628 636 0
-629 636 0
-630 636 0
-631 636 0
637 0
638 -636 0
-638 636 0
-619 639 0
-620 639 0
-621 639 0
-622 639 0
-623 639 0
-624 639 0
-625 639 0
-626 639 0
-627 639 0
-628 639 0
-629 639 0
-630 639 0
-631 639 0
640 0
641 -639 0
-641 639 0
-620 642 0
-621 642 0
-622 642 0
-623 642 0
-624 642 0
-625 642 0
-626 642 0
-627 642 0
-628 642 0
-629 642 0
-630 642 0
-631 642 0
643 0
644 -642 0
-644 642 0
-621 645 0
-622 645 0
-623 645 0
-624 645 0
-625 645 0
-626 645 0
-627 645 0
-628 645 0
-629 645 0
-630 645 0
-631 645 0
646 0
647 -645 0
-647 645 0
-622 648 0
-623 648 0
-624 648 0
-625 648 0
-626 648 0
-627 648 0
-628 648 0
-629 648 0
-630 648 0
-631 648 0
649 0
650 -648 0
-650 648 0
-623 651 0
-624 651 0
-625 651 0
-626 651 0
-627 651 0
-628 651 0
-629 651 0
-630 651 0
-631 651 0
652 0
653 -651 0
-653 651 0
-624 654 0
-625 654 0
-626 654 0
-627 654 0
-628 654 0
-629 654 0
-630 654 0
-631 654 0
655 0
656 -654 0
-656 654 0
657 -654 0
-657 654 0
658 -654 0
-658 654 0
659 -654 0
-659 654 0
660 -654 0
-660 654 0
661 -654 0
-661 654 0
662 -654 0
-662 654 0
663 -654 0
-663 654 0
-664 665 0
665 -666 0
665 -667 0
665 -668 0
-669 665 0
665 -670 0
-671 665 0
665 -672 0
665 -673 0
-674 665 0
-675 665 0
665 -676 0
677 0
20 -665 0
-20 665 0
-666 678 0
-667 678 0
-668 678 0
-669 678 0
-670 678 0
-671 678 0
-672 678 0
-673 678 0
-674 678 0
-675 678 0
-676 678 0
679 0
680 -678 0
-680 678 0
-667 681 0
-668 681 0
-669 681 0
-670 681 0
-671 681 0
-672 681 0
-673 681 0
-674 681 0
-675 681 0
-676 681 0
682 0
683 -681 0
-683 681 0
-668 684 0
-669 684 0
-670 684 0
-671 684 0
-672 684 0
-673 684 0
-674 684 0
-675 684 0
-676 684 0
685 0
686 -684 0
-686 684 0
-669 687 0
-670 687 0
-671 687 0
-672 687 0
-673 687 0
-674 687 0
-675 687 0
-676 687 0
688 0
689 -687 0
-689 687 0
-670 690 0
-671 690 0
-672 690 0
-673 690 0
-674 690 0
-675 690 0
-676 690 0
691 0
692 -690 0
-692 690 0
693 -690 0
-693 690 0
694 -690 0
-694 690 0
695 -690 0
-695 690 0
696 -690 0
-696 690 0
697 -690 0
-697 690 0
698 -690 0
-698 690 0
-74 699 0
-75 699 0
-76 699 0
-77 699 0
-78 699 0
-79 699 0
-80 699 0
699 -700 0
699 -701 0
702 0
21 -699 0
-21 699 0
-74 703 0
-75 703 0
-76 703 0
-77 703 0
-78 703 0
-79 703 0
-80 703 0
-701 703 0
704 0
705 -703 0
-705 703 0
-706 707 0
-708 707 0
707 -709 0
707 -710 0
-711 707 0
-712 707 0
707 -713 0
-714 707 0
-715 707 0
-716 707 0
707 -717 0
707 -718 0
707 -719 0
707 -720 0
721 0
22 -707 0
-22 707 0
-708 722 0
-709 722 0
-710 722 0
-711 722 0
-712 722 0
-713 722 0
-714 722 0
-715 722 0
-716 722 0
-717 722 0
-718 722 0
-719 722 0
-720 722 0
723 0
724 -722 0
-724 722 0
-709 725 0
-710 725 0
-711 725 0
-712 725 0
-713 725 0
-714 725 0
-715 725 0
-716 725 0
-717 725 0
-718 725 0
-719 725 0
-720 725 0
726 0
727 -725 0
-727 725 0
-710 728 0
-711 728 0
-712 728 0
-713 728 0
-714 728 0
-715 728 0
-716 728 0
-717 728 0
-718 728 0
-719 728 0
-720 728 0
729 0
730 -728 0
-730 728 0
-711 731 0
-712 731 0
-713 731 0
-714 731 0
-715 731 0
-716 731 0
-717 731 0
-718 731 0
-719 731 0
-720 731 0
732 0
733 -731 0
-733 731 0
-712 734 0
-713 734 0
-714 734 0
-715 734 0
-716 734 0
-717 734 0
-718 734 0
-719 734 0
-720 734 0
735 0
736 -734 0
-736 734 0
-713 737 0
-714 737 0
-715 737 0
-716 737 0
-717 737 0
-718 737 0
-719 737 0
-720 737 0
738 0
739 -737 0
-739 737 0
740 -737 0
-740 737 0
741 -737 0
-741 737 0
742 -737 0
-742 737 0
743 -737 0
-743 737 0
744 -737 0
-744 737 0
745 -737 0
-745 737 0
746 -737 0
-746 737 0
-305 747 0
-306 747 0
-307 747 0
-308 747 0
-309 747 0
-310 747 0
-311 747 0
-312 747 0
-313 747 0
-314 747 0
-315 747 0
747 -748 0
747 -749 0
747 -750 0
751 0
23 -747 0
-23 747 0
-305 752 0
-306 752 0
-307 752 0
-308 752 0
-309 752 0
-310 752 0
-311 752 0
-312 752 0
-313 752 0
-314 752 0
-315 752 0
-749 752 0
-750 752 0
753 0
754 -752 0
-754 752 0
-305 755 0
-306 755 0
-307 755 0
-308 755 0
-309 755 0
-310 755 0
-311 755 0
-312 755 0
-313 755 0
-314 755 0
-315 755 0
-750 755 0
756 0
757 -755 0
-757 755 0
758 -759 0
-760 758 0
758 -761 0
758 -762 0
758 -763 0
758 -764 0
-765 758 0
-766 758 0
-767 758 0
-768 758 0
-769 758 0
770 0
24 -758 0
-24 758 0
-760 771 0
-761 771 0
-762 771 0
-763 771 0
-764 771 0
-765 771 0
-766 771 0
-767 771 0
-768 771 0
-769 771 0
772 0
773 -771 0
-773 771 0
-761 774 0
-762 774 0
-763 774 0
-764 774 0
-765 774 0
-766 774 0
-767 774 0
-768 774 0
-769 774 0
775 0
776 -774 0
-776 774 0
-762 777 0
-763 777 0
-764 777 0
-765 777 0
-766 777 0
-767 777 0
-768 777 0
-769 777 0
778 0
779 -777 0
-779 777 0
-763 780 0
-764 780 0
-765 780 0
-766 780 0
-767 780 0
-768 780 0
-769 780 0
781 0
782 -780 0
-782 780 0
-764 783 0
-765 783 0
-766 783 0
-767 783 0
-768 783 0
-769 783 0
784 0
785 -783 0
-785 783 0
786 -783 0
-786 783 0
787 -783 0
-787 783 0
788 -783 0
-788 783 0
789 -783 0
-789 783 0
790 -783 0
-790 783 0
-791 792 0
-793 792 0
792 -794 0
792 -795 0
792 -796 0
-797 792 0
-798 792 0
792 -799 0
792 -800 0
792 -801 0
792 -802 0
792 -803 0
-804 792 0
792 -805 0
806 0
25 -792 0
-25 792 0
-793 807 0
-794 807 0
-795 807 0
-796 807 0
-797 807 0
-798 807 0
-799 807 0
-800 807 0
-801 807 0
-802 807 0
-803 807 0
-804 807 0
-805 807 0
808 0
809 -807 0
-809 807 0
-794 810 0
-795 810 0
-796 810 0
-797 810 0
-798 810 0
-799 810 0
-800 810 0
-801 810 0
-802 810 0
-803 810 0
-804 810 0
-805 810 0
811 0
812 -810 0
-812 810 0
-795 813 0
-796 813 0
-797 813 0
-798 813 0
-799 813 0
-800 813 0
-801 813 0
-802 813 0
-803 813 0
-804 813 0
-805 813 0
814 0
815 -813 0
-815 813 0
-796 816 0
-797 816 0
-798 816 0
-799 816 0
-800 816 0
-801 816 0
-802 816 0
-803 816 0
-804 816 0
-805 816 0
817 0
818 -816 0
-818 816 0
-797 819 0
-798 819 0
-799 819 0
-800 819 0
-801 819 0
-802 819 0
-803 819 0
-804 819 0
-805 819 0
820 0
821 -819 0
-821 819 0
-798 822 0
-799 822 0
-800 822 0
-801 822 0
-802 822 0
-803 822 0
-804 822 0
-805 822 0
823 0
824 -822 0
-824 822 0
825 -822 0
-825 822 0
826 -822 0
-826 822 0
827 -822 0
-827 822 0
828 -822 0
-828 822 0
829 -822 0
-829 822 0
830 -822 0
-830 822 0
831 -822 0
-831 822 0
26 -832 0
-26 832 0
-833 -27 0
-833 -29 0
-833 -30 0
-833 -31 0
-833 -32 0
33 -833 0
34 -833 0
-833 -35 0
-833 -36 0
37 -833 0
38 -833 0
39 -833 0
-833 -40 0
-833 -41 0
71 -833 0
-833 -72 0
-833 -73 0
74 -833 0
-833 -75 0
76 -833 0
77 -833 0
78 -833 0
79 -833 0
-833 -80 0
-833 -99 0
-833 -101 0
-833 -102 0
-833 -103 0
-833 -104 0
105 -833 0
-833 -106 0
-833 -107 0
-833 -108 0
-833 -109 0
110 -833 0
111 -833 0
-833 -132 0
-833 -134 0
135 -833 0
-833 -136 0
-833 -137 0
138 -833 0
-833 -139 0
140 -833 0
-833 -141 0
-833 -142 0
143 -833 0
144 -833 0
145 -833 0
146 -833 0
-833 -175 0
-833 -177 0
-833 -178 0
179 -833 0
-833 -180 0
181 -833 0
182 -833 0
-833 -183 0
184 -833 0
-833 -185 0
-833 -186 0
-833 -206 0
-833 -208 0
-833 -209 0
-833 -210 0
-833 -211 0
212 -833 0
-833 -213 0
-833 -214 0
-833 -215 0
216 -833 0
217 -833 0
240 -833 0
-833 -241 0
-833 -242 0
243 -833 0
-833 -244 0
-833 -245 0
246 -833 0
247 -833 0
-833 -248 0
249 -833 0
-833 -250 0
-833 -251 0
252 -833 0
253 -833 0
-833 -254 0
-833 -287 0
288 -833 0
289 -833 0
-833 -290 0
-833 -301 0
-833 -303 0
-833 -304 0
-833 -305 0
-833 -306 0
307 -833 0
-833 -308 0
309 -833 0
-833 -310 0
311 -833 0
-833 -312 0
-833 -313 0
314 -833 0
315 -833 0
347 -833 0
-833 -348 0
349 -833 0
-833 -350 0
351 -833 0
-833 -352 0
353 -833 0
-833 -354 0
355 -833 0
356 -833 0
357 -833 0
-833 -358 0
382 -833 0
-833 -383 0
-833 -384 0
-833 -385 0
386 -833 0
401 -833 0
402 -833 0
403 -833 0
-833 -404 0
-833 -405 0
-833 -406 0
407 -833 0
408 -833 0
-833 -409 0
-833 -410 0
-833 -411 0
412 -833 0
413 -833 0
440 -833 0
-833 -441 0
-833 -442 0
-833 -443 0
455 -833 0
456 -833 0
457 -833 0
458 -833 0
459 -833 0
-833 -460 0
-833 -461 0
-833 -462 0
-833 -463 0
464 -833 0
-833 -465 0
-833 -466 0
-833 -467 0
468 -833 0
-833 -500 0
-833 -501 0
502 -833 0
503 -833 0
504 -833 0
-833 -518 0
-833 -520 0
521 -833 0
522 -833 0
523 -833 0
-833 -524 0
-833 -525 0
526 -833 0
-833 -527 0
528 -833 0
-833 -529 0
-833 -530 0
554 -833 0
555 -833 0
-833 -556 0
-833 -557 0
558 -833 0
-833 -559 0
560 -833 0
575 -833 0
576 -833 0
-833 -577 0
578 -833 0
-833 -579 0
-833 -580 0
581 -833 0
-833 -582 0
583 -833 0
584 -833 0
-833 -585 0
-833 -586 0
-833 -587 0
-833 -615 0
617 -833 0
618 -833 0
619 -833 0
-833 -620 0
-833 -621 0
622 -833 0
-833 -623 0
-833 -624 0
625 -833 0
-833 -626 0
-833 -627 0
628 -833 0
629 -833 0
-833 -630 0
631 -833 0
-833 -664 0
666 -833 0
667 -833 0
668 -833 0
-833 -669 0
670 -833 0
-833 -671 0
672 -833 0
673 -833 0
-833 -674 0
-833 -675 0
676 -833 0
700 -833 0
701 -833 0
-833 -706 0
-833 -708 0
709 -833 0
710 -833 0
-833 -711 0
-833 -712 0
713 -833 0
-833 -714 0
-833 -715 0
-833 -716 0
717 -833 0
718 -833 0
719 -833 0
720 -833 0
748 -833 0
749 -833 0
750 -833 0
759 -833 0
-833 -760 0
761 -833 0
762 -833 0
763 -833 0
764 -833 0
-833 -765 0
-833 -766 0
-833 -767 0
-833 -768 0
-833 -769 0
-833 -791 0
-833 -793 0
794 -833 0
795 -833 0
796 -833 0
-833 -797 0
-833 -798 0
799 -833 0
800 -833 0
801 -833 0
802 -833 0
803 -833 0
-833 -804 0
805 -833 0
-833 -832 0
833 0
-834 0
-835 0
-836 0
-837 0
-838 0
-839 0
-840 0
-841 0
